\ENCODING=ISO-8859-1
\Problem name: ilog.cplex

Minimize
 obj1: 98984 x1 + 90358 x2 + 98983 x3 + 98857 x4 + 99347 x5 + 105332 x6
       + 107026 x7 + 106417 x8 + 102844 x9 + 108234 x10 + 103204 x11
       + 101380 x12 + 100502 x13 + 92540 x14 + 107473 x15 + 96717 x16
       + 109821 x17 + 93233 x18 + 103631 x19 + 92476 x20 + 99588 x21
       + 106641 x22 + 101152 x23 + 101834 x24 + 104616 x25 + 109196 x26
       + 97113 x27 + 95352 x28 + 96007 x29 + 96284 x30 + 96880 x31 + 100527 x32
       + 105043 x33 + 106899 x34 + 100031 x35 + 106131 x36 + 106960 x37
       + 104993 x38 + 91434 x39 + 103793 x40 + 94646 x41 + 94197 x42
       + 96534 x43 + 92894 x44 + 91648 x45 + 109055 x46 + 104535 x47
       + 99092 x48 + 108975 x49 + 92912 x50 + 100313 x51 + 107854 x52
       + 90274 x53 + 99964 x54 + 90053 x55 + 98418 x56 + 108096 x57 + 97984 x58
       + 103948 x59 + 106244 x60 + 104562 x61 + 107870 x62 + 95941 x63
       + 99418 x64 + 98858 x65 + 106142 x66 + 106344 x67 + 94405 x68
       + 102895 x69 + 95226 x70 + 106815 x71 + 95621 x72 + 91275 x73
       + 93824 x74 + 93083 x75 + 97181 x76 + 94973 x77 + 102258 x78 + 94503 x79
       + 106041 x80 + 105318 x81 + 105548 x82 + 102181 x83 + 106700 x84
       + 105332 x85 + 108222 x86 + 90731 x87 + 94223 x88 + 106625 x89
       + 101763 x90 + 102619 x91 + 94542 x92 + 101766 x93 + 108118 x94
       + 98649 x95 + 108825 x96 + 104406 x97 + 100846 x98 + 93259 x99
       + 102166 x100 + 105927 x101 + 93086 x102 + 100039 x103 + 102218 x104
       + 97771 x105 + 103009 x106 + 96890 x107 + 104603 x108 + 103755 x109
       + 101487 x110 + 97255 x111 + 91787 x112 + 92813 x113 + 90078 x114
       + 104130 x115 + 97428 x116 + 105537 x117 + 98399 x118 + 100725 x119
       + 98959 x120 + 96373 x121 + 92328 x122 + 104305 x123 + 96353 x124
       + 91183 x125 + 108341 x126 + 98424 x127 + 106651 x128 + 90579 x129
       + 105638 x130 + 91514 x131 + 97666 x132 + 103507 x133 + 96377 x134
       + 104245 x135 + 105709 x136 + 95294 x137 + 93531 x138 + 98048 x139
       + 104199 x140 + 99670 x141 + 105775 x142 + 102858 x143 + 92750 x144
       + 95256 x145 + 109273 x146 + 103397 x147 + 99566 x148 + 103579 x149
       + 97373 x150 + 90945 x151 + 94246 x152 + 90250 x153 + 99909 x154
       + 104450 x155 + 91678 x156 + 109805 x157 + 94996 x158 + 105834 x159
       + 109931 x160 + 93108 x161 + 95490 x162 + 101953 x163 + 104637 x164
       + 101039 x165 + 106478 x166 + 105449 x167 + 92789 x168 + 90876 x169
       + 98724 x170 + 93898 x171 + 97713 x172 + 100603 x173 + 109390 x174
       + 97508 x175 + 107874 x176 + 103247 x177 + 92764 x178 + 107770 x179
       + 103362 x180 + 101966 x181 + 100431 x182 + 106214 x183 + 101474 x184
       + 106113 x185 + 103146 x186 + 109758 x187 + 105911 x188 + 98708 x189
       + 105128 x190 + 97155 x191 + 92900 x192 + 96535 x193 + 105574 x194
       + 99646 x195 + 91956 x196 + 95510 x197 + 91905 x198 + 108146 x199
       + 98981 x200 + 95081 x201 + 95621 x202 + 94238 x203 + 92355 x204
       + 95737 x205 + 109711 x206 + 98693 x207 + 92848 x208 + 101841 x209
       + 94883 x210 + 99101 x211 + 105028 x212 + 106671 x213 + 104000 x214
       + 92999 x215 + 104550 x216 + 90973 x217 + 97385 x218 + 104904 x219
       + 90152 x220 + 92134 x221 + 90238 x222 + 104511 x223 + 99580 x224
       + 102785 x225 + 92823 x226 + 97125 x227 + 108373 x228 + 99223 x229
       + 107040 x230 + 91331 x231 + 105154 x232 + 100670 x233 + 100658 x234
       + 94853 x235 + 92507 x236 + 96656 x237 + 98793 x238 + 101141 x239
       + 108666 x240 + 91713 x241 + 91130 x242 + 106418 x243 + 101969 x244
       + 104088 x245 + 92955 x246 + 99777 x247 + 97388 x248 + 98321 x249
       + 98225 x250 + 103709 x251 + 105595 x252 + 108445 x253 + 97854 x254
       + 104662 x255 + 98769 x256 + 102142 x257 + 99777 x258 + 104546 x259
       + 100312 x260 + 92916 x261 + 92193 x262 + 103975 x263 + 109676 x264
       + 100924 x265 + 91976 x266 + 97377 x267 + 92044 x268 + 102862 x269
       + 94206 x270 + 109785 x271 + 90906 x272 + 93705 x273 + 102975 x274
       + 90724 x275 + 91229 x276 + 95133 x277 + 103060 x278 + 107320 x279
       + 94389 x280 + 94374 x281 + 103724 x282 + 104592 x283 + 105151 x284
       + 90767 x285 + 105338 x286 + 107272 x287 + 95660 x288 + 91623 x289
       + 94487 x290 + 104586 x291 + 101760 x292 + 93813 x293 + 103912 x294
       + 107075 x295 + 102902 x296 + 92978 x297 + 99886 x298 + 92858 x299
       + 98489 x300 + 100715 x301 + 98380 x302 + 94006 x303 + 108452 x304
       + 96782 x305 + 97963 x306 + 91000 x307 + 94789 x308 + 91829 x309
       + 99629 x310 + 90007 x311 + 94644 x312 + 108026 x313 + 95171 x314
       + 109162 x315 + 103047 x316 + 104929 x317 + 107038 x318 + 93712 x319
       + 95837 x320 + 101593 x321 + 96876 x322 + 96197 x323 + 97530 x324
       + 101840 x325 + 109599 x326 + 105604 x327 + 91595 x328 + 90701 x329
       + 102417 x330 + 107623 x331 + 93370 x332 + 102236 x333 + 100014 x334
       + 100702 x335 + 100398 x336 + 96779 x337 + 99393 x338 + 90705 x339
       + 90119 x340 + 109099 x341 + 100910 x342 + 100761 x343 + 90692 x344
       + 98070 x345 + 105659 x346 + 102297 x347 + 107105 x348 + 103127 x349
       + 93552 x350 + 101359 x351 + 90070 x352 + 106821 x353 + 99283 x354
       + 95413 x355 + 96544 x356 + 102371 x357 + 95032 x358 + 99843 x359
       + 104066 x360 + 96435 x361 + 103708 x362 + 97896 x363 + 95862 x364
       + 98639 x365 + 96720 x366 + 91293 x367 + 90543 x368 + 102490 x369
       + 94180 x370 + 100562 x371 + 99254 x372 + 90588 x373 + 93633 x374
       + 97873 x375 + 105062 x376 + 98877 x377 + 92338 x378 + 103173 x379
       + 98244 x380 + 98083 x381 + 93883 x382 + 104254 x383 + 106758 x384
       + 93162 x385 + 100865 x386 + 101895 x387 + 102497 x388 + 104847 x389
       + 91949 x390 + 92323 x391 + 100766 x392 + 101344 x393 + 103839 x394
       + 100974 x395 + 102984 x396 + 92775 x397 + 106498 x398 + 93911 x399
       + 100740 x400 + 103094 x401 + 104168 x402 + 108047 x403 + 100368 x404
       + 108427 x405 + 98683 x406 + 91293 x407 + 91642 x408 + 97153 x409
       + 94458 x410 + 107183 x411 + 92817 x412 + 92245 x413 + 109338 x414
       + 97425 x415 + 95509 x416 + 100806 x417 + 103022 x418 + 99023 x419
       + 101905 x420 + 91818 x421 + 96645 x422 + 105412 x423 + 107256 x424
       + 102692 x425 + 94642 x426 + 104636 x427 + 90889 x428 + 100425 x429
       + 90546 x430 + 106554 x431 + 91468 x432 + 91901 x433 + 109207 x434
       + 95119 x435 + 100882 x436 + 102311 x437 + 109321 x438 + 91485 x439
       + 100330 x440 + 100635 x441 + 102217 x442 + 109035 x443 + 102083 x444
       + 106820 x445 + 95532 x446 + 102374 x447 + 90853 x448 + 106539 x449
       + 103687 x450 + 101026 x451 + 93905 x452 + 108201 x453 + 104164 x454
       + 108011 x455 + 107528 x456 + 109284 x457 + 109685 x458 + 96058 x459
       + 106257 x460 + 91455 x461 + 99988 x462 + 92378 x463 + 99612 x464
       + 97601 x465 + 108886 x466 + 102640 x467 + 98277 x468 + 103132 x469
       + 90488 x470 + 106306 x471 + 99793 x472 + 97387 x473 + 99633 x474
       + 97162 x475 + 94054 x476 + 108802 x477 + 107670 x478 + 99886 x479
       + 92369 x480 + 100300 x481 + 104033 x482 + 92396 x483 + 101098 x484
       + 98113 x485 + 101554 x486 + 103302 x487 + 103678 x488 + 104590 x489
       + 106617 x490 + 93929 x491 + 103319 x492 + 103565 x493 + 94032 x494
       + 95207 x495 + 92744 x496 + 95434 x497 + 100873 x498 + 91129 x499
       + 226806 x500 + 40473 x501 + 38765 x502 + 36745 x503 + 39703 x504
       + 37381 x505 + 40336 x506 + 39176 x507 + 37995 x508 + 37152 x509
       + 38052 x510 + 41545 x511 + 37665 x512 + 36875 x513 + 38430 x514
       + 42941 x515 + 40654 x516 + 43713 x517 + 43613 x518 + 37057 x519
       + 37716 x520 + 42522 x521 + 36684 x522 + 39479 x523 + 36742 x524
       + 40964 x525 + 36837 x526 + 43726 x527 + 41915 x528 + 38335 x529
       + 40398 x530 + 41515 x531 + 38911 x532 + 43006 x533 + 40844 x534
       + 42773 x535 + 40878 x536 + 42842 x537 + 40831 x538 + 39774 x539
       + 36195 x540 + 41141 x541 + 39886 x542 + 37307 x543 + 36007 x544
       + 43597 x545 + 42806 x546 + 41150 x547 + 43294 x548 + 43463 x549
       + 40191 x550
Subject To
 c1:   - x4 - x20 + x22 - x27 - x34 - x36 + x38 - x40 - x45 + x50  = 0
 c2:   - x54 - x70 + x72 - x77 - x84 - x86 + x88 - x90 - x95 + x100  = 1
 c3:   - x104 - x120 + x122 - x127 - x134 - x136 + x138 - x140 - x145 + x150
        = 0
 c4:   - x154 - x170 + x172 - x177 - x184 - x186 + x188 - x190 - x195 + x200
        = 0
 c5:   - x204 - x220 + x222 - x227 - x234 - x236 + x238 - x240 - x245 + x250
        = 0
 c6:   - x254 - x270 + x272 - x277 - x284 - x286 + x288 - x290 - x295 + x300
        = -1
 c7:   - x304 - x320 + x322 - x327 - x334 - x336 + x338 - x340 - x345 + x350
        = 0
 c8:   - x354 - x370 + x372 - x377 - x384 - x386 + x388 - x390 - x395 + x400
        = 0
 c9:   - x404 - x420 + x422 - x427 - x434 - x436 + x438 - x440 - x445 + x450
        = 0
 c10:  - x454 - x470 + x472 - x477 - x484 - x486 + x488 - x490 - x495 + x500
        = 0
 c11:  - x5 + x8 - x9 + x12 + x19 - x22 - x25 + x29 + x36 + x37 - x44 - x47
        = 0
 c12:  - x55 + x58 - x59 + x62 + x69 - x72 - x75 + x79 + x86 + x87 - x94 - x97
        = 0
 c13:  - x105 + x108 - x109 + x112 + x119 - x122 - x125 + x129 + x136 + x137
       - x144 - x147  = 0
 c14:  - x155 + x158 - x159 + x162 + x169 - x172 - x175 + x179 + x186 + x187
       - x194 - x197  = 1
 c15:  - x205 + x208 - x209 + x212 + x219 - x222 - x225 + x229 + x236 + x237
       - x244 - x247  = 0
 c16:  - x255 + x258 - x259 + x262 + x269 - x272 - x275 + x279 + x286 + x287
       - x294 - x297  = 1
 c17:  - x305 + x308 - x309 + x312 + x319 - x322 - x325 + x329 + x336 + x337
       - x344 - x347  = 0
 c18:  - x355 + x358 - x359 + x362 + x369 - x372 - x375 + x379 + x386 + x387
       - x394 - x397  = -1
 c19:  - x405 + x408 - x409 + x412 + x419 - x422 - x425 + x429 + x436 + x437
       - x444 - x447  = 1
 c20:  - x455 + x458 - x459 + x462 + x469 - x472 - x475 + x479 + x486 + x487
       - x494 - x497  = 0
 c21:  x16 + x18 - x19 - x23 - x24 + x26 + x27 + x28 - x35 + x48 - x49  = 0
 c22:  x66 + x68 - x69 - x73 - x74 + x76 + x77 + x78 - x85 + x98 - x99  = 0
 c23:  x116 + x118 - x119 - x123 - x124 + x126 + x127 + x128 - x135 + x148
       - x149  = 0
 c24:  x166 + x168 - x169 - x173 - x174 + x176 + x177 + x178 - x185 + x198
       - x199  = 0
 c25:  x216 + x218 - x219 - x223 - x224 + x226 + x227 + x228 - x235 + x248
       - x249  = 0
 c26:  x266 + x268 - x269 - x273 - x274 + x276 + x277 + x278 - x285 + x298
       - x299  = 0
 c27:  x316 + x318 - x319 - x323 - x324 + x326 + x327 + x328 - x335 + x348
       - x349  = 0
 c28:  x366 + x368 - x369 - x373 - x374 + x376 + x377 + x378 - x385 + x398
       - x399  = 0
 c29:  x416 + x418 - x419 - x423 - x424 + x426 + x427 + x428 - x435 + x448
       - x449  = 0
 c30:  x466 + x468 - x469 - x473 - x474 + x476 + x477 + x478 - x485 + x498
       - x499  = 0
 c31:  x4 - x17 - x18 - x31 + x33 + x43  = 0
 c32:  x54 - x67 - x68 - x81 + x83 + x93  = 0
 c33:  x104 - x117 - x118 - x131 + x133 + x143  = 0
 c34:  x154 - x167 - x168 - x181 + x183 + x193  = 0
 c35:  x204 - x217 - x218 - x231 + x233 + x243  = 0
 c36:  x254 - x267 - x268 - x281 + x283 + x293  = 0
 c37:  x304 - x317 - x318 - x331 + x333 + x343  = 0
 c38:  x354 - x367 - x368 - x381 + x383 + x393  = 0
 c39:  x404 - x417 - x418 - x431 + x433 + x443  = -1
 c40:  x454 - x467 - x468 - x481 + x483 + x493  = 0
 c41:  - x8 + x11 + x20 + x21 + x25 - x41 + x42 - x48  = 0
 c42:  - x58 + x61 + x70 + x71 + x75 - x91 + x92 - x98  = 0
 c43:  - x108 + x111 + x120 + x121 + x125 - x141 + x142 - x148  = 1
 c44:  - x158 + x161 + x170 + x171 + x175 - x191 + x192 - x198  = 0
 c45:  - x208 + x211 + x220 + x221 + x225 - x241 + x242 - x248  = 0
 c46:  - x258 + x261 + x270 + x271 + x275 - x291 + x292 - x298  = 0
 c47:  - x308 + x311 + x320 + x321 + x325 - x341 + x342 - x348  = 0
 c48:  - x358 + x361 + x370 + x371 + x375 - x391 + x392 - x398  = 0
 c49:  - x408 + x411 + x420 + x421 + x425 - x441 + x442 - x448  = 0
 c50:  - x458 + x461 + x470 + x471 + x475 - x491 + x492 - x498  = 1
 c51:  x1 - x2 - x6 + x7 + x9 + x14 - x33 + x41 - x46 + x49  = 0
 c52:  x51 - x52 - x56 + x57 + x59 + x64 - x83 + x91 - x96 + x99  = -1
 c53:  x101 - x102 - x106 + x107 + x109 + x114 - x133 + x141 - x146 + x149  = 0
 c54:  x151 - x152 - x156 + x157 + x159 + x164 - x183 + x191 - x196 + x199  = 0
 c55:  x201 - x202 - x206 + x207 + x209 + x214 - x233 + x241 - x246 + x249  = 0
 c56:  x251 - x252 - x256 + x257 + x259 + x264 - x283 + x291 - x296 + x299  = 0
 c57:  x301 - x302 - x306 + x307 + x309 + x314 - x333 + x341 - x346 + x349  = 1
 c58:  x351 - x352 - x356 + x357 + x359 + x364 - x383 + x391 - x396 + x399  = 1
 c59:  x401 - x402 - x406 + x407 + x409 + x414 - x433 + x441 - x446 + x449  = 0
 c60:  x451 - x452 - x456 + x457 + x459 + x464 - x483 + x491 - x496 + x499  = 0
 c61:  x2 - x7 + x10 - x11 - x16 + x31 - x32 + x39 + x40 + x47  = 0
 c62:  x52 - x57 + x60 - x61 - x66 + x81 - x82 + x89 + x90 + x97  = 0
 c63:  x102 - x107 + x110 - x111 - x116 + x131 - x132 + x139 + x140 + x147  = 0
 c64:  x152 - x157 + x160 - x161 - x166 + x181 - x182 + x189 + x190 + x197  = 0
 c65:  x202 - x207 + x210 - x211 - x216 + x231 - x232 + x239 + x240 + x247  = 0
 c66:  x252 - x257 + x260 - x261 - x266 + x281 - x282 + x289 + x290 + x297  = 0
 c67:  x302 - x307 + x310 - x311 - x316 + x331 - x332 + x339 + x340 + x347  = 0
 c68:  x352 - x357 + x360 - x361 - x366 + x381 - x382 + x389 + x390 + x397  = 0
 c69:  x402 - x407 + x410 - x411 - x416 + x431 - x432 + x439 + x440 + x447  = 0
 c70:  x452 - x457 + x460 - x461 - x466 + x481 - x482 + x489 + x490 + x497  = 0
 c71:  - x1 + x3 + x6 - x12 - x13 + x15 + x24 - x28 + x32 - x42 - x43 + x45
        = 1
 c72:  - x51 + x53 + x56 - x62 - x63 + x65 + x74 - x78 + x82 - x92 - x93 + x95
        = 0
 c73:  - x101 + x103 + x106 - x112 - x113 + x115 + x124 - x128 + x132 - x142
       - x143 + x145  = 0
 c74:  - x151 + x153 + x156 - x162 - x163 + x165 + x174 - x178 + x182 - x192
       - x193 + x195  = 0
 c75:  - x201 + x203 + x206 - x212 - x213 + x215 + x224 - x228 + x232 - x242
       - x243 + x245  = 1
 c76:  - x251 + x253 + x256 - x262 - x263 + x265 + x274 - x278 + x282 - x292
       - x293 + x295  = 0
 c77:  - x301 + x303 + x306 - x312 - x313 + x315 + x324 - x328 + x332 - x342
       - x343 + x345  = 0
 c78:  - x351 + x353 + x356 - x362 - x363 + x365 + x374 - x378 + x382 - x392
       - x393 + x395  = 0
 c79:  - x401 + x403 + x406 - x412 - x413 + x415 + x424 - x428 + x432 - x442
       - x443 + x445  = 0
 c80:  - x451 + x453 + x456 - x462 - x463 + x465 + x474 - x478 + x482 - x492
       - x493 + x495  = 0
 c81:  - x3 + x13 - x14 + x17 - x21 - x26 - x29 + x30 + x34 + x35 - x38 - x39
       + x44 + x46  = 0
 c82:  - x53 + x63 - x64 + x67 - x71 - x76 - x79 + x80 + x84 + x85 - x88 - x89
       + x94 + x96  = 0
 c83:  - x103 + x113 - x114 + x117 - x121 - x126 - x129 + x130 + x134 + x135
       - x138 - x139 + x144 + x146  = 0
 c84:  - x153 + x163 - x164 + x167 - x171 - x176 - x179 + x180 + x184 + x185
       - x188 - x189 + x194 + x196  = -1
 c85:  - x203 + x213 - x214 + x217 - x221 - x226 - x229 + x230 + x234 + x235
       - x238 - x239 + x244 + x246  = 0
 c86:  - x253 + x263 - x264 + x267 - x271 - x276 - x279 + x280 + x284 + x285
       - x288 - x289 + x294 + x296  = 0
 c87:  - x303 + x313 - x314 + x317 - x321 - x326 - x329 + x330 + x334 + x335
       - x338 - x339 + x344 + x346  = 0
 c88:  - x353 + x363 - x364 + x367 - x371 - x376 - x379 + x380 + x384 + x385
       - x388 - x389 + x394 + x396  = 0
 c89:  - x403 + x413 - x414 + x417 - x421 - x426 - x429 + x430 + x434 + x435
       - x438 - x439 + x444 + x446  = 0
 c90:  - x453 + x463 - x464 + x467 - x471 - x476 - x479 + x480 + x484 + x485
       - x488 - x489 + x494 + x496  = -1
 c91:  x5 - x10 - x15 + x23 - x30 - x37 - x50  = -1
 c92:  x55 - x60 - x65 + x73 - x80 - x87 - x100  = 0
 c93:  x105 - x110 - x115 + x123 - x130 - x137 - x150  = -1
 c94:  x155 - x160 - x165 + x173 - x180 - x187 - x200  = 0
 c95:  x205 - x210 - x215 + x223 - x230 - x237 - x250  = -1
 c96:  x255 - x260 - x265 + x273 - x280 - x287 - x300  = 0
 c97:  x305 - x310 - x315 + x323 - x330 - x337 - x350  = -1
 c98:  x355 - x360 - x365 + x373 - x380 - x387 - x400  = 0
 c99:  x405 - x410 - x415 + x423 - x430 - x437 - x450  = 0
 c100: x455 - x460 - x465 + x473 - x480 - x487 - x500  = 0
 c101: 4 x1 + 4 x51 + 4 x101 + 4 x151 + 4 x201 + 4 x251 + 4 x301 + 4 x351
       + 4 x401 + 4 x451 - 5 x501 <= 0
 c102: 4 x2 + 4 x52 + 4 x102 + 4 x152 + 4 x202 + 4 x252 + 4 x302 + 4 x352
       + 4 x402 + 4 x452 - 5 x502 <= 0
 c103: 4 x3 + 4 x53 + 4 x103 + 4 x153 + 4 x203 + 4 x253 + 4 x303 + 4 x353
       + 4 x403 + 4 x453 - 5 x503 <= 0
 c104: 4 x4 + 4 x54 + 4 x104 + 4 x154 + 4 x204 + 4 x254 + 4 x304 + 4 x354
       + 4 x404 + 4 x454 - 5 x504 <= 0
 c105: 4 x5 + 4 x55 + 4 x105 + 4 x155 + 4 x205 + 4 x255 + 4 x305 + 4 x355
       + 4 x405 + 4 x455 - 5 x505 <= 0
 c106: 4 x6 + 4 x56 + 4 x106 + 4 x156 + 4 x206 + 4 x256 + 4 x306 + 4 x356
       + 4 x406 + 4 x456 - 5 x506 <= 0
 c107: 4 x7 + 4 x57 + 4 x107 + 4 x157 + 4 x207 + 4 x257 + 4 x307 + 4 x357
       + 4 x407 + 4 x457 - 5 x507 <= 0
 c108: 4 x8 + 4 x58 + 4 x108 + 4 x158 + 4 x208 + 4 x258 + 4 x308 + 4 x358
       + 4 x408 + 4 x458 - 5 x508 <= 0
 c109: 4 x9 + 4 x59 + 4 x109 + 4 x159 + 4 x209 + 4 x259 + 4 x309 + 4 x359
       + 4 x409 + 4 x459 - 5 x509 <= 0
 c110: 4 x10 + 4 x60 + 4 x110 + 4 x160 + 4 x210 + 4 x260 + 4 x310 + 4 x360
       + 4 x410 + 4 x460 - 5 x510 <= 0
 c111: 4 x11 + 4 x61 + 4 x111 + 4 x161 + 4 x211 + 4 x261 + 4 x311 + 4 x361
       + 4 x411 + 4 x461 - 5 x511 <= 0
 c112: 4 x12 + 4 x62 + 4 x112 + 4 x162 + 4 x212 + 4 x262 + 4 x312 + 4 x362
       + 4 x412 + 4 x462 - 5 x512 <= 0
 c113: 4 x13 + 4 x63 + 4 x113 + 4 x163 + 4 x213 + 4 x263 + 4 x313 + 4 x363
       + 4 x413 + 4 x463 - 5 x513 <= 0
 c114: 4 x14 + 4 x64 + 4 x114 + 4 x164 + 4 x214 + 4 x264 + 4 x314 + 4 x364
       + 4 x414 + 4 x464 - 5 x514 <= 0
 c115: 4 x15 + 4 x65 + 4 x115 + 4 x165 + 4 x215 + 4 x265 + 4 x315 + 4 x365
       + 4 x415 + 4 x465 - 5 x515 <= 0
 c116: 4 x16 + 4 x66 + 4 x116 + 4 x166 + 4 x216 + 4 x266 + 4 x316 + 4 x366
       + 4 x416 + 4 x466 - 5 x516 <= 0
 c117: 4 x17 + 4 x67 + 4 x117 + 4 x167 + 4 x217 + 4 x267 + 4 x317 + 4 x367
       + 4 x417 + 4 x467 - 5 x517 <= 0
 c118: 4 x18 + 4 x68 + 4 x118 + 4 x168 + 4 x218 + 4 x268 + 4 x318 + 4 x368
       + 4 x418 + 4 x468 - 5 x518 <= 0
 c119: 4 x19 + 4 x69 + 4 x119 + 4 x169 + 4 x219 + 4 x269 + 4 x319 + 4 x369
       + 4 x419 + 4 x469 - 5 x519 <= 0
 c120: 4 x20 + 4 x70 + 4 x120 + 4 x170 + 4 x220 + 4 x270 + 4 x320 + 4 x370
       + 4 x420 + 4 x470 - 5 x520 <= 0
 c121: 4 x21 + 4 x71 + 4 x121 + 4 x171 + 4 x221 + 4 x271 + 4 x321 + 4 x371
       + 4 x421 + 4 x471 - 5 x521 <= 0
 c122: 4 x22 + 4 x72 + 4 x122 + 4 x172 + 4 x222 + 4 x272 + 4 x322 + 4 x372
       + 4 x422 + 4 x472 - 5 x522 <= 0
 c123: 4 x23 + 4 x73 + 4 x123 + 4 x173 + 4 x223 + 4 x273 + 4 x323 + 4 x373
       + 4 x423 + 4 x473 - 5 x523 <= 0
 c124: 4 x24 + 4 x74 + 4 x124 + 4 x174 + 4 x224 + 4 x274 + 4 x324 + 4 x374
       + 4 x424 + 4 x474 - 5 x524 <= 0
 c125: 4 x25 + 4 x75 + 4 x125 + 4 x175 + 4 x225 + 4 x275 + 4 x325 + 4 x375
       + 4 x425 + 4 x475 - 5 x525 <= 0
 c126: 4 x26 + 4 x76 + 4 x126 + 4 x176 + 4 x226 + 4 x276 + 4 x326 + 4 x376
       + 4 x426 + 4 x476 - 5 x526 <= 0
 c127: 4 x27 + 4 x77 + 4 x127 + 4 x177 + 4 x227 + 4 x277 + 4 x327 + 4 x377
       + 4 x427 + 4 x477 - 5 x527 <= 0
 c128: 4 x28 + 4 x78 + 4 x128 + 4 x178 + 4 x228 + 4 x278 + 4 x328 + 4 x378
       + 4 x428 + 4 x478 - 5 x528 <= 0
 c129: 4 x29 + 4 x79 + 4 x129 + 4 x179 + 4 x229 + 4 x279 + 4 x329 + 4 x379
       + 4 x429 + 4 x479 - 5 x529 <= 0
 c130: 4 x30 + 4 x80 + 4 x130 + 4 x180 + 4 x230 + 4 x280 + 4 x330 + 4 x380
       + 4 x430 + 4 x480 - 5 x530 <= 0
 c131: 4 x31 + 4 x81 + 4 x131 + 4 x181 + 4 x231 + 4 x281 + 4 x331 + 4 x381
       + 4 x431 + 4 x481 - 5 x531 <= 0
 c132: 4 x32 + 4 x82 + 4 x132 + 4 x182 + 4 x232 + 4 x282 + 4 x332 + 4 x382
       + 4 x432 + 4 x482 - 5 x532 <= 0
 c133: 4 x33 + 4 x83 + 4 x133 + 4 x183 + 4 x233 + 4 x283 + 4 x333 + 4 x383
       + 4 x433 + 4 x483 - 5 x533 <= 0
 c134: 4 x34 + 4 x84 + 4 x134 + 4 x184 + 4 x234 + 4 x284 + 4 x334 + 4 x384
       + 4 x434 + 4 x484 - 5 x534 <= 0
 c135: 4 x35 + 4 x85 + 4 x135 + 4 x185 + 4 x235 + 4 x285 + 4 x335 + 4 x385
       + 4 x435 + 4 x485 - 5 x535 <= 0
 c136: 4 x36 + 4 x86 + 4 x136 + 4 x186 + 4 x236 + 4 x286 + 4 x336 + 4 x386
       + 4 x436 + 4 x486 - 5 x536 <= 0
 c137: 4 x37 + 4 x87 + 4 x137 + 4 x187 + 4 x237 + 4 x287 + 4 x337 + 4 x387
       + 4 x437 + 4 x487 - 5 x537 <= 0
 c138: 4 x38 + 4 x88 + 4 x138 + 4 x188 + 4 x238 + 4 x288 + 4 x338 + 4 x388
       + 4 x438 + 4 x488 - 5 x538 <= 0
 c139: 4 x39 + 4 x89 + 4 x139 + 4 x189 + 4 x239 + 4 x289 + 4 x339 + 4 x389
       + 4 x439 + 4 x489 - 5 x539 <= 0
 c140: 4 x40 + 4 x90 + 4 x140 + 4 x190 + 4 x240 + 4 x290 + 4 x340 + 4 x390
       + 4 x440 + 4 x490 - 5 x540 <= 0
 c141: 4 x41 + 4 x91 + 4 x141 + 4 x191 + 4 x241 + 4 x291 + 4 x341 + 4 x391
       + 4 x441 + 4 x491 - 5 x541 <= 0
 c142: 4 x42 + 4 x92 + 4 x142 + 4 x192 + 4 x242 + 4 x292 + 4 x342 + 4 x392
       + 4 x442 + 4 x492 - 5 x542 <= 0
 c143: 4 x43 + 4 x93 + 4 x143 + 4 x193 + 4 x243 + 4 x293 + 4 x343 + 4 x393
       + 4 x443 + 4 x493 - 5 x543 <= 0
 c144: 4 x44 + 4 x94 + 4 x144 + 4 x194 + 4 x244 + 4 x294 + 4 x344 + 4 x394
       + 4 x444 + 4 x494 - 5 x544 <= 0
 c145: 4 x45 + 4 x95 + 4 x145 + 4 x195 + 4 x245 + 4 x295 + 4 x345 + 4 x395
       + 4 x445 + 4 x495 - 5 x545 <= 0
 c146: 4 x46 + 4 x96 + 4 x146 + 4 x196 + 4 x246 + 4 x296 + 4 x346 + 4 x396
       + 4 x446 + 4 x496 - 5 x546 <= 0
 c147: 4 x47 + 4 x97 + 4 x147 + 4 x197 + 4 x247 + 4 x297 + 4 x347 + 4 x397
       + 4 x447 + 4 x497 - 5 x547 <= 0
 c148: 4 x48 + 4 x98 + 4 x148 + 4 x198 + 4 x248 + 4 x298 + 4 x348 + 4 x398
       + 4 x448 + 4 x498 - 5 x548 <= 0
 c149: 4 x49 + 4 x99 + 4 x149 + 4 x199 + 4 x249 + 4 x299 + 4 x349 + 4 x399
       + 4 x449 + 4 x499 - 5 x549 <= 0
 c150: 4 x50 + 4 x100 + 4 x150 + 4 x200 + 4 x250 + 4 x300 + 4 x350 + 4 x400
       + 4 x450 + 4 x500 - 5 x550 <= 0
Bounds
 0 <= x1 <= 1
 0 <= x2 <= 1
 0 <= x3 <= 1
 0 <= x4 <= 1
 0 <= x5 <= 1
 0 <= x6 <= 1
 0 <= x7 <= 1
 0 <= x8 <= 1
 0 <= x9 <= 1
 0 <= x10 <= 1
 0 <= x11 <= 1
 0 <= x12 <= 1
 0 <= x13 <= 1
 0 <= x14 <= 1
 0 <= x15 <= 1
 0 <= x16 <= 1
 0 <= x17 <= 1
 0 <= x18 <= 1
 0 <= x19 <= 1
 0 <= x20 <= 1
 0 <= x21 <= 1
 0 <= x22 <= 1
 0 <= x23 <= 1
 0 <= x24 <= 1
 0 <= x25 <= 1
 0 <= x26 <= 1
 0 <= x27 <= 1
 0 <= x28 <= 1
 0 <= x29 <= 1
 0 <= x30 <= 1
 0 <= x31 <= 1
 0 <= x32 <= 1
 0 <= x33 <= 1
 0 <= x34 <= 1
 0 <= x35 <= 1
 0 <= x36 <= 1
 0 <= x37 <= 1
 0 <= x38 <= 1
 0 <= x39 <= 1
 0 <= x40 <= 1
 0 <= x41 <= 1
 0 <= x42 <= 1
 0 <= x43 <= 1
 0 <= x44 <= 1
 0 <= x45 <= 1
 0 <= x46 <= 1
 0 <= x47 <= 1
 0 <= x48 <= 1
 0 <= x49 <= 1
 0 <= x50 <= 1
 0 <= x51 <= 1
 0 <= x52 <= 1
 0 <= x53 <= 1
 0 <= x54 <= 1
 0 <= x55 <= 1
 0 <= x56 <= 1
 0 <= x57 <= 1
 0 <= x58 <= 1
 0 <= x59 <= 1
 0 <= x60 <= 1
 0 <= x61 <= 1
 0 <= x62 <= 1
 0 <= x63 <= 1
 0 <= x64 <= 1
 0 <= x65 <= 1
 0 <= x66 <= 1
 0 <= x67 <= 1
 0 <= x68 <= 1
 0 <= x69 <= 1
 0 <= x70 <= 1
 0 <= x71 <= 1
 0 <= x72 <= 1
 0 <= x73 <= 1
 0 <= x74 <= 1
 0 <= x75 <= 1
 0 <= x76 <= 1
 0 <= x77 <= 1
 0 <= x78 <= 1
 0 <= x79 <= 1
 0 <= x80 <= 1
 0 <= x81 <= 1
 0 <= x82 <= 1
 0 <= x83 <= 1
 0 <= x84 <= 1
 0 <= x85 <= 1
 0 <= x86 <= 1
 0 <= x87 <= 1
 0 <= x88 <= 1
 0 <= x89 <= 1
 0 <= x90 <= 1
 0 <= x91 <= 1
 0 <= x92 <= 1
 0 <= x93 <= 1
 0 <= x94 <= 1
 0 <= x95 <= 1
 0 <= x96 <= 1
 0 <= x97 <= 1
 0 <= x98 <= 1
 0 <= x99 <= 1
 0 <= x100 <= 1
 0 <= x101 <= 1
 0 <= x102 <= 1
 0 <= x103 <= 1
 0 <= x104 <= 1
 0 <= x105 <= 1
 0 <= x106 <= 1
 0 <= x107 <= 1
 0 <= x108 <= 1
 0 <= x109 <= 1
 0 <= x110 <= 1
 0 <= x111 <= 1
 0 <= x112 <= 1
 0 <= x113 <= 1
 0 <= x114 <= 1
 0 <= x115 <= 1
 0 <= x116 <= 1
 0 <= x117 <= 1
 0 <= x118 <= 1
 0 <= x119 <= 1
 0 <= x120 <= 1
 0 <= x121 <= 1
 0 <= x122 <= 1
 0 <= x123 <= 1
 0 <= x124 <= 1
 0 <= x125 <= 1
 0 <= x126 <= 1
 0 <= x127 <= 1
 0 <= x128 <= 1
 0 <= x129 <= 1
 0 <= x130 <= 1
 0 <= x131 <= 1
 0 <= x132 <= 1
 0 <= x133 <= 1
 0 <= x134 <= 1
 0 <= x135 <= 1
 0 <= x136 <= 1
 0 <= x137 <= 1
 0 <= x138 <= 1
 0 <= x139 <= 1
 0 <= x140 <= 1
 0 <= x141 <= 1
 0 <= x142 <= 1
 0 <= x143 <= 1
 0 <= x144 <= 1
 0 <= x145 <= 1
 0 <= x146 <= 1
 0 <= x147 <= 1
 0 <= x148 <= 1
 0 <= x149 <= 1
 0 <= x150 <= 1
 0 <= x151 <= 1
 0 <= x152 <= 1
 0 <= x153 <= 1
 0 <= x154 <= 1
 0 <= x155 <= 1
 0 <= x156 <= 1
 0 <= x157 <= 1
 0 <= x158 <= 1
 0 <= x159 <= 1
 0 <= x160 <= 1
 0 <= x161 <= 1
 0 <= x162 <= 1
 0 <= x163 <= 1
 0 <= x164 <= 1
 0 <= x165 <= 1
 0 <= x166 <= 1
 0 <= x167 <= 1
 0 <= x168 <= 1
 0 <= x169 <= 1
 0 <= x170 <= 1
 0 <= x171 <= 1
 0 <= x172 <= 1
 0 <= x173 <= 1
 0 <= x174 <= 1
 0 <= x175 <= 1
 0 <= x176 <= 1
 0 <= x177 <= 1
 0 <= x178 <= 1
 0 <= x179 <= 1
 0 <= x180 <= 1
 0 <= x181 <= 1
 0 <= x182 <= 1
 0 <= x183 <= 1
 0 <= x184 <= 1
 0 <= x185 <= 1
 0 <= x186 <= 1
 0 <= x187 <= 1
 0 <= x188 <= 1
 0 <= x189 <= 1
 0 <= x190 <= 1
 0 <= x191 <= 1
 0 <= x192 <= 1
 0 <= x193 <= 1
 0 <= x194 <= 1
 0 <= x195 <= 1
 0 <= x196 <= 1
 0 <= x197 <= 1
 0 <= x198 <= 1
 0 <= x199 <= 1
 0 <= x200 <= 1
 0 <= x201 <= 1
 0 <= x202 <= 1
 0 <= x203 <= 1
 0 <= x204 <= 1
 0 <= x205 <= 1
 0 <= x206 <= 1
 0 <= x207 <= 1
 0 <= x208 <= 1
 0 <= x209 <= 1
 0 <= x210 <= 1
 0 <= x211 <= 1
 0 <= x212 <= 1
 0 <= x213 <= 1
 0 <= x214 <= 1
 0 <= x215 <= 1
 0 <= x216 <= 1
 0 <= x217 <= 1
 0 <= x218 <= 1
 0 <= x219 <= 1
 0 <= x220 <= 1
 0 <= x221 <= 1
 0 <= x222 <= 1
 0 <= x223 <= 1
 0 <= x224 <= 1
 0 <= x225 <= 1
 0 <= x226 <= 1
 0 <= x227 <= 1
 0 <= x228 <= 1
 0 <= x229 <= 1
 0 <= x230 <= 1
 0 <= x231 <= 1
 0 <= x232 <= 1
 0 <= x233 <= 1
 0 <= x234 <= 1
 0 <= x235 <= 1
 0 <= x236 <= 1
 0 <= x237 <= 1
 0 <= x238 <= 1
 0 <= x239 <= 1
 0 <= x240 <= 1
 0 <= x241 <= 1
 0 <= x242 <= 1
 0 <= x243 <= 1
 0 <= x244 <= 1
 0 <= x245 <= 1
 0 <= x246 <= 1
 0 <= x247 <= 1
 0 <= x248 <= 1
 0 <= x249 <= 1
 0 <= x250 <= 1
 0 <= x251 <= 1
 0 <= x252 <= 1
 0 <= x253 <= 1
 0 <= x254 <= 1
 0 <= x255 <= 1
 0 <= x256 <= 1
 0 <= x257 <= 1
 0 <= x258 <= 1
 0 <= x259 <= 1
 0 <= x260 <= 1
 0 <= x261 <= 1
 0 <= x262 <= 1
 0 <= x263 <= 1
 0 <= x264 <= 1
 0 <= x265 <= 1
 0 <= x266 <= 1
 0 <= x267 <= 1
 0 <= x268 <= 1
 0 <= x269 <= 1
 0 <= x270 <= 1
 0 <= x271 <= 1
 0 <= x272 <= 1
 0 <= x273 <= 1
 0 <= x274 <= 1
 0 <= x275 <= 1
 0 <= x276 <= 1
 0 <= x277 <= 1
 0 <= x278 <= 1
 0 <= x279 <= 1
 0 <= x280 <= 1
 0 <= x281 <= 1
 0 <= x282 <= 1
 0 <= x283 <= 1
 0 <= x284 <= 1
 0 <= x285 <= 1
 0 <= x286 <= 1
 0 <= x287 <= 1
 0 <= x288 <= 1
 0 <= x289 <= 1
 0 <= x290 <= 1
 0 <= x291 <= 1
 0 <= x292 <= 1
 0 <= x293 <= 1
 0 <= x294 <= 1
 0 <= x295 <= 1
 0 <= x296 <= 1
 0 <= x297 <= 1
 0 <= x298 <= 1
 0 <= x299 <= 1
 0 <= x300 <= 1
 0 <= x301 <= 1
 0 <= x302 <= 1
 0 <= x303 <= 1
 0 <= x304 <= 1
 0 <= x305 <= 1
 0 <= x306 <= 1
 0 <= x307 <= 1
 0 <= x308 <= 1
 0 <= x309 <= 1
 0 <= x310 <= 1
 0 <= x311 <= 1
 0 <= x312 <= 1
 0 <= x313 <= 1
 0 <= x314 <= 1
 0 <= x315 <= 1
 0 <= x316 <= 1
 0 <= x317 <= 1
 0 <= x318 <= 1
 0 <= x319 <= 1
 0 <= x320 <= 1
 0 <= x321 <= 1
 0 <= x322 <= 1
 0 <= x323 <= 1
 0 <= x324 <= 1
 0 <= x325 <= 1
 0 <= x326 <= 1
 0 <= x327 <= 1
 0 <= x328 <= 1
 0 <= x329 <= 1
 0 <= x330 <= 1
 0 <= x331 <= 1
 0 <= x332 <= 1
 0 <= x333 <= 1
 0 <= x334 <= 1
 0 <= x335 <= 1
 0 <= x336 <= 1
 0 <= x337 <= 1
 0 <= x338 <= 1
 0 <= x339 <= 1
 0 <= x340 <= 1
 0 <= x341 <= 1
 0 <= x342 <= 1
 0 <= x343 <= 1
 0 <= x344 <= 1
 0 <= x345 <= 1
 0 <= x346 <= 1
 0 <= x347 <= 1
 0 <= x348 <= 1
 0 <= x349 <= 1
 0 <= x350 <= 1
 0 <= x351 <= 1
 0 <= x352 <= 1
 0 <= x353 <= 1
 0 <= x354 <= 1
 0 <= x355 <= 1
 0 <= x356 <= 1
 0 <= x357 <= 1
 0 <= x358 <= 1
 0 <= x359 <= 1
 0 <= x360 <= 1
 0 <= x361 <= 1
 0 <= x362 <= 1
 0 <= x363 <= 1
 0 <= x364 <= 1
 0 <= x365 <= 1
 0 <= x366 <= 1
 0 <= x367 <= 1
 0 <= x368 <= 1
 0 <= x369 <= 1
 0 <= x370 <= 1
 0 <= x371 <= 1
 0 <= x372 <= 1
 0 <= x373 <= 1
 0 <= x374 <= 1
 0 <= x375 <= 1
 0 <= x376 <= 1
 0 <= x377 <= 1
 0 <= x378 <= 1
 0 <= x379 <= 1
 0 <= x380 <= 1
 0 <= x381 <= 1
 0 <= x382 <= 1
 0 <= x383 <= 1
 0 <= x384 <= 1
 0 <= x385 <= 1
 0 <= x386 <= 1
 0 <= x387 <= 1
 0 <= x388 <= 1
 0 <= x389 <= 1
 0 <= x390 <= 1
 0 <= x391 <= 1
 0 <= x392 <= 1
 0 <= x393 <= 1
 0 <= x394 <= 1
 0 <= x395 <= 1
 0 <= x396 <= 1
 0 <= x397 <= 1
 0 <= x398 <= 1
 0 <= x399 <= 1
 0 <= x400 <= 1
 0 <= x401 <= 1
 0 <= x402 <= 1
 0 <= x403 <= 1
 0 <= x404 <= 1
 0 <= x405 <= 1
 0 <= x406 <= 1
 0 <= x407 <= 1
 0 <= x408 <= 1
 0 <= x409 <= 1
 0 <= x410 <= 1
 0 <= x411 <= 1
 0 <= x412 <= 1
 0 <= x413 <= 1
 0 <= x414 <= 1
 0 <= x415 <= 1
 0 <= x416 <= 1
 0 <= x417 <= 1
 0 <= x418 <= 1
 0 <= x419 <= 1
 0 <= x420 <= 1
 0 <= x421 <= 1
 0 <= x422 <= 1
 0 <= x423 <= 1
 0 <= x424 <= 1
 0 <= x425 <= 1
 0 <= x426 <= 1
 0 <= x427 <= 1
 0 <= x428 <= 1
 0 <= x429 <= 1
 0 <= x430 <= 1
 0 <= x431 <= 1
 0 <= x432 <= 1
 0 <= x433 <= 1
 0 <= x434 <= 1
 0 <= x435 <= 1
 0 <= x436 <= 1
 0 <= x437 <= 1
 0 <= x438 <= 1
 0 <= x439 <= 1
 0 <= x440 <= 1
 0 <= x441 <= 1
 0 <= x442 <= 1
 0 <= x443 <= 1
 0 <= x444 <= 1
 0 <= x445 <= 1
 0 <= x446 <= 1
 0 <= x447 <= 1
 0 <= x448 <= 1
 0 <= x449 <= 1
 0 <= x450 <= 1
 0 <= x451 <= 1
 0 <= x452 <= 1
 0 <= x453 <= 1
 0 <= x454 <= 1
 0 <= x455 <= 1
 0 <= x456 <= 1
 0 <= x457 <= 1
 0 <= x458 <= 1
 0 <= x459 <= 1
 0 <= x460 <= 1
 0 <= x461 <= 1
 0 <= x462 <= 1
 0 <= x463 <= 1
 0 <= x464 <= 1
 0 <= x465 <= 1
 0 <= x466 <= 1
 0 <= x467 <= 1
 0 <= x468 <= 1
 0 <= x469 <= 1
 0 <= x470 <= 1
 0 <= x471 <= 1
 0 <= x472 <= 1
 0 <= x473 <= 1
 0 <= x474 <= 1
 0 <= x475 <= 1
 0 <= x476 <= 1
 0 <= x477 <= 1
 0 <= x478 <= 1
 0 <= x479 <= 1
 0 <= x480 <= 1
 0 <= x481 <= 1
 0 <= x482 <= 1
 0 <= x483 <= 1
 0 <= x484 <= 1
 0 <= x485 <= 1
 0 <= x486 <= 1
 0 <= x487 <= 1
 0 <= x488 <= 1
 0 <= x489 <= 1
 0 <= x490 <= 1
 0 <= x491 <= 1
 0 <= x492 <= 1
 0 <= x493 <= 1
 0 <= x494 <= 1
 0 <= x495 <= 1
 0 <= x496 <= 1
 0 <= x497 <= 1
 0 <= x498 <= 1
 0 <= x499 <= 1
 0 <= x500 <= 1
 0 <= x501 <= 1
 0 <= x502 <= 1
 0 <= x503 <= 1
 0 <= x504 <= 1
 0 <= x505 <= 1
 0 <= x506 <= 1
 0 <= x507 <= 1
 0 <= x508 <= 1
 0 <= x509 <= 1
 0 <= x510 <= 1
 0 <= x511 <= 1
 0 <= x512 <= 1
 0 <= x513 <= 1
 0 <= x514 <= 1
 0 <= x515 <= 1
 0 <= x516 <= 1
 0 <= x517 <= 1
 0 <= x518 <= 1
 0 <= x519 <= 1
 0 <= x520 <= 1
 0 <= x521 <= 1
 0 <= x522 <= 1
 0 <= x523 <= 1
 0 <= x524 <= 1
 0 <= x525 <= 1
 0 <= x526 <= 1
 0 <= x527 <= 1
 0 <= x528 <= 1
 0 <= x529 <= 1
 0 <= x530 <= 1
 0 <= x531 <= 1
 0 <= x532 <= 1
 0 <= x533 <= 1
 0 <= x534 <= 1
 0 <= x535 <= 1
 0 <= x536 <= 1
 0 <= x537 <= 1
 0 <= x538 <= 1
 0 <= x539 <= 1
 0 <= x540 <= 1
 0 <= x541 <= 1
 0 <= x542 <= 1
 0 <= x543 <= 1
 0 <= x544 <= 1
 0 <= x545 <= 1
 0 <= x546 <= 1
 0 <= x547 <= 1
 0 <= x548 <= 1
 0 <= x549 <= 1
 0 <= x550 <= 1
Binaries
 x501  x502  x503  x504  x505  x506  x507  x508  x509  x510  x511  x512  x513 
 x514  x515  x516  x517  x518  x519  x520  x521  x522  x523  x524  x525  x526 
 x527  x528  x529  x530  x531  x532  x533  x534  x535  x536  x537  x538  x539 
 x540  x541  x542  x543  x544  x545  x546  x547  x548  x549  x550 
End
